c description: Random 2-CNF over 15 variables and 95 clauses
c generator: CNFgen (0.9.0)
c copyright: (C) 2012-2020 Massimo Lauria <massimo.lauria@uniroma1.it>
c url: https://massimolauria.net/cnfgen
c
p cnf 15 95
-2 14 0
-3 -14 0
11 -15 0
-6 -13 0
1 -4 0
-7 9 0
-5 -13 0
6 10 0
-8 -11 0
8 13 0
-2 13 0
-8 13 0
8 -15 0
3 7 0
2 14 0
-9 12 0
1 5 0
8 -11 0
-11 13 0
-12 -15 0
1 12 0
9 -12 0
1 9 0
2 4 0
-8 -10 0
-1 -5 0
1 -2 0
8 -14 0
2 12 0
-2 9 0
3 -12 0
-11 -13 0
2 5 0
-10 12 0
1 14 0
5 13 0
2 13 0
-2 -10 0
-11 12 0
-8 -13 0
-4 7 0
-6 15 0
1 15 0
-12 14 0
-3 13 0
-13 15 0
3 -10 0
7 9 0
-9 -13 0
3 -14 0
-2 -7 0
-5 7 0
3 -13 0
5 10 0
-5 12 0
2 -15 0
-3 14 0
9 -10 0
3 10 0
2 15 0
-6 8 0
7 13 0
-9 15 0
-7 15 0
-5 8 0
-7 -8 0
10 -11 0
-10 14 0
5 -15 0
3 6 0
8 10 0
5 -14 0
-3 9 0
-8 -15 0
-4 -14 0
-3 -4 0
2 -9 0
-10 11 0
6 11 0
-4 11 0
6 -10 0
-3 5 0
-5 -8 0
-1 -3 0
-7 10 0
7 -11 0
-7 -9 0
4 -12 0
9 15 0
-6 -11 0
1 10 0
1 6 0
-2 10 0
-8 12 0
3 11 0